(declare-fun var0 () String)
(assert (str.in.re var0 (re.++ (re.+ (re.+ (str.to.re "$$$"))) (re.++ (re.+ (re.+ (str.to.re "###"))) (re.++ (re.* (re.+ (str.to.re """"""))) (re.++ (re.+ (re.* (str.to.re "!"))) (re.++ (re.* (re.union (str.to.re "YYY") (str.to.re "Z"))) (re.++ (re.* (re.* (str.to.re "XXX"))) (re.++ (re.union (re.union (str.to.re "TTT") (str.to.re "UU")) (re.union (str.to.re "VV") (str.to.re "W"))) (re.++ (re.+ (re.* (str.to.re "SSS"))) (re.++ (re.union (re.union (str.to.re "OOO") (str.to.re "PPP")) (re.union (str.to.re "QQ") (str.to.re "RRR"))) (re.++ (re.union (re.union (str.to.re "KKK") (str.to.re "LL")) (re.union (str.to.re "MMM") (str.to.re "N"))) (re.++ (re.union (re.* (str.to.re "HHH")) (re.union (str.to.re "II") (str.to.re "JJJ"))) (re.++ (re.union (re.union (str.to.re "E") (str.to.re "F")) (re.+ (str.to.re "GG"))) (re.++ (re.union (re.union (str.to.re "A") (str.to.re "BBB")) (re.union (str.to.re "CC") (str.to.re "D"))) (re.++ (re.+ (re.+ (str.to.re "zz"))) (re.++ (re.union (re.* (str.to.re "w")) (re.union (str.to.re "xxx") (str.to.re "y"))) (re.++ (re.+ (re.+ (str.to.re "v"))) (re.++ (re.* (re.+ (str.to.re "uuu"))) (re.++ (re.union (re.union (str.to.re "q") (str.to.re "rr")) (re.union (str.to.re "s") (str.to.re "t"))) (re.++ (re.union (re.union (str.to.re "mm") (str.to.re "nn")) (re.union (str.to.re "o") (str.to.re "ppp"))) (re.++ (re.union (re.* (str.to.re "kk")) (re.+ (str.to.re "l"))) (re.++ (re.union (re.+ (str.to.re "hhh")) (re.union (str.to.re "ii") (str.to.re "jjj"))) (re.++ (re.+ (re.union (str.to.re "f") (str.to.re "g"))) (re.++ (re.+ (re.union (str.to.re "d") (str.to.re "eee"))) (re.++ (re.+ (re.* (str.to.re "ccc"))) (re.++ (re.union (re.* (str.to.re "999")) (re.union (str.to.re "a") (str.to.re "bbb"))) (re.++ (re.+ (re.union (str.to.re "7") (str.to.re "8"))) (re.++ (re.+ (re.+ (str.to.re "6"))) (re.++ (re.union (re.* (str.to.re "4")) (re.* (str.to.re "5"))) (re.++ (re.+ (re.* (str.to.re "333"))) (re.++ (re.union (re.+ (str.to.re "111")) (re.* (str.to.re "222"))) (re.* (re.* (str.to.re "0")))))))))))))))))))))))))))))))))))
(check-sat)